
Gurobi 8.1.1 (win64, Python) logging started 10/23/19 10:27:45

Academic license - for non-commercial use only

Gurobi 8.1.1 (win64, Python) logging started 10/23/19 10:29:35

Academic license - for non-commercial use only

Gurobi 8.1.1 (win64, Python) logging started 10/23/19 11:54:35

Academic license - for non-commercial use only

Gurobi 8.1.1 (win64, Python) logging started 10/23/19 11:56:18

Academic license - for non-commercial use only

Gurobi 8.1.1 (win64, Python) logging started 10/23/19 12:08:20

Academic license - for non-commercial use only

Gurobi 8.1.1 (win64, Python) logging started 10/23/19 12:10:19

Academic license - for non-commercial use only

Gurobi 8.1.1 (win64, Python) logging started 10/23/19 12:20:56

Academic license - for non-commercial use only

Gurobi 8.1.1 (win64, Python) logging started 10/23/19 12:34:20

Academic license - for non-commercial use only

Gurobi 8.1.1 (win64, Python) logging started 10/23/19 12:35:51

Academic license - for non-commercial use only

Gurobi 8.1.1 (win64, Python) logging started 10/23/19 12:38:42

Academic license - for non-commercial use only

Gurobi 8.1.1 (win64, Python) logging started 10/23/19 12:44:56

Academic license - for non-commercial use only

Gurobi 8.1.1 (win64, Python) logging started 10/23/19 13:07:52

Academic license - for non-commercial use only

Gurobi 8.1.1 (win64, Python) logging started 10/24/19 09:30:59

Academic license - for non-commercial use only

Gurobi 8.1.1 (win64, Python) logging started 10/24/19 10:07:45

Academic license - for non-commercial use only

Gurobi 8.1.1 (win64, Python) logging started 10/24/19 10:12:15

Academic license - for non-commercial use only

Gurobi 8.1.1 (win64, Python) logging started 10/24/19 11:02:26

Academic license - for non-commercial use only

Gurobi 8.1.1 (win64, Python) logging started 10/25/19 11:18:56

Academic license - for non-commercial use only

Gurobi 8.1.1 (win64, Python) logging started 10/25/19 11:23:50

Academic license - for non-commercial use only

Gurobi 8.1.1 (win64, Python) logging started 10/25/19 11:24:45

Academic license - for non-commercial use only

Gurobi 8.1.1 (win64, Python) logging started 10/25/19 11:26:37

Academic license - for non-commercial use only

Gurobi 8.1.1 (win64, Python) logging started 10/25/19 11:38:14

Academic license - for non-commercial use only

Gurobi 8.1.1 (win64, Python) logging started 10/25/19 11:40:02

Academic license - for non-commercial use only

Gurobi 8.1.1 (win64, Python) logging started 10/25/19 11:42:26

Academic license - for non-commercial use only

Gurobi 8.1.1 (win64, Python) logging started 10/25/19 11:44:44

Academic license - for non-commercial use only

Gurobi 8.1.1 (win64, Python) logging started 10/25/19 11:45:11

Academic license - for non-commercial use only

Gurobi 8.1.1 (win64, Python) logging started 10/25/19 11:47:39

Academic license - for non-commercial use only

Gurobi 8.1.1 (win64, Python) logging started 10/25/19 11:50:00

Academic license - for non-commercial use only

Gurobi 8.1.1 (win64, Python) logging started 10/25/19 11:50:29

Academic license - for non-commercial use only

Gurobi 8.1.1 (win64, Python) logging started 10/25/19 11:50:59

Academic license - for non-commercial use only

Gurobi 8.1.1 (win64, Python) logging started 10/25/19 11:51:24

Academic license - for non-commercial use only

Gurobi 8.1.1 (win64, Python) logging started 10/25/19 11:54:31

Academic license - for non-commercial use only

Gurobi 8.1.1 (win64, Python) logging started 10/25/19 11:57:05

Academic license - for non-commercial use only

Gurobi 8.1.1 (win64, Python) logging started 10/25/19 12:00:52

Academic license - for non-commercial use only

Gurobi 8.1.1 (win64, Python) logging started 10/25/19 12:04:20

Academic license - for non-commercial use only

Gurobi 8.1.1 (win64, Python) logging started 10/25/19 12:05:15

Academic license - for non-commercial use only

Gurobi 8.1.1 (win64, Python) logging started 10/25/19 12:10:02

Academic license - for non-commercial use only

Gurobi 8.1.1 (win64, Python) logging started 10/25/19 12:12:59

Academic license - for non-commercial use only

Gurobi 8.1.1 (win64, Python) logging started 10/25/19 12:15:05

Academic license - for non-commercial use only

Gurobi 8.1.1 (win64, Python) logging started 10/25/19 12:15:50

Academic license - for non-commercial use only

Gurobi 8.1.1 (win64, Python) logging started 10/25/19 12:17:33

Academic license - for non-commercial use only

Gurobi 8.1.1 (win64, Python) logging started 10/25/19 12:18:56

Academic license - for non-commercial use only

Gurobi 8.1.1 (win64, Python) logging started 10/25/19 12:20:28

Academic license - for non-commercial use only

Gurobi 8.1.1 (win64, Python) logging started 10/25/19 12:33:39

Academic license - for non-commercial use only

Gurobi 8.1.1 (win64, Python) logging started 10/25/19 12:36:23

Academic license - for non-commercial use only

Gurobi 8.1.1 (win64, Python) logging started 10/25/19 12:40:46

Academic license - for non-commercial use only

Gurobi 8.1.1 (win64, Python) logging started 10/25/19 12:42:33

Academic license - for non-commercial use only

Gurobi 8.1.1 (win64, Python) logging started 10/25/19 12:43:56

Academic license - for non-commercial use only

Gurobi 8.1.1 (win64, Python) logging started 10/25/19 13:00:03

Academic license - for non-commercial use only

Gurobi 8.1.1 (win64, Python) logging started 10/25/19 15:17:17

Academic license - for non-commercial use only

Gurobi 8.1.1 (win64, Python) logging started 10/25/19 15:21:07

Academic license - for non-commercial use only

Gurobi 8.1.1 (win64, Python) logging started 10/25/19 15:40:08

Academic license - for non-commercial use only

Gurobi 8.1.1 (win64, Python) logging started 10/25/19 15:47:03

Academic license - for non-commercial use only

Gurobi 8.1.1 (win64, Python) logging started 10/25/19 15:52:21

Academic license - for non-commercial use only

Gurobi 8.1.1 (win64, Python) logging started 10/25/19 15:58:05

Academic license - for non-commercial use only

Gurobi 8.1.1 (win64, Python) logging started 10/25/19 16:07:10

Academic license - for non-commercial use only

Gurobi 8.1.1 (win64, Python) logging started 10/25/19 16:07:57

Academic license - for non-commercial use only

Gurobi 8.1.1 (win64, Python) logging started 10/25/19 16:08:51

Academic license - for non-commercial use only

Gurobi 8.1.1 (win64, Python) logging started 10/25/19 16:18:07

Academic license - for non-commercial use only

Gurobi 8.1.1 (win64, Python) logging started 10/25/19 16:20:06

Academic license - for non-commercial use only

Gurobi 8.1.1 (win64, Python) logging started 10/25/19 16:22:29

Academic license - for non-commercial use only

Gurobi 8.1.1 (win64, Python) logging started 10/28/19 09:15:09

Academic license - for non-commercial use only

Gurobi 8.1.1 (win64, Python) logging started 10/28/19 09:21:45

Academic license - for non-commercial use only

Gurobi 8.1.1 (win64, Python) logging started 10/28/19 09:28:06

Academic license - for non-commercial use only

Gurobi 8.1.1 (win64, Python) logging started 10/28/19 09:28:26

Academic license - for non-commercial use only

Gurobi 8.1.1 (win64, Python) logging started 10/28/19 09:33:57

Academic license - for non-commercial use only

Gurobi 8.1.1 (win64, Python) logging started 10/28/19 09:34:53

Academic license - for non-commercial use only

Gurobi 8.1.1 (win64, Python) logging started 10/28/19 09:35:33

Academic license - for non-commercial use only

Gurobi 8.1.1 (win64, Python) logging started 10/28/19 10:03:28

Academic license - for non-commercial use only

Gurobi 8.1.1 (win64, Python) logging started 10/28/19 10:05:14

Academic license - for non-commercial use only

Gurobi 8.1.1 (win64, Python) logging started 10/28/19 10:29:59

Academic license - for non-commercial use only

Gurobi 8.1.1 (win64, Python) logging started 10/28/19 11:25:22

Academic license - for non-commercial use only

Gurobi 8.1.1 (win64, Python) logging started 10/28/19 11:26:49

Academic license - for non-commercial use only

Gurobi 8.1.1 (win64, Python) logging started 10/28/19 11:28:18

Academic license - for non-commercial use only

Gurobi 8.1.1 (win64, Python) logging started 10/28/19 11:30:16

Academic license - for non-commercial use only

Gurobi 8.1.1 (win64, Python) logging started 10/28/19 15:09:16

Academic license - for non-commercial use only

Gurobi 8.1.1 (win64, Python) logging started 10/28/19 15:12:52

Academic license - for non-commercial use only

Gurobi 8.1.1 (win64, Python) logging started 10/28/19 15:26:14

Academic license - for non-commercial use only

Gurobi 8.1.1 (win64, Python) logging started 10/28/19 15:41:42

Academic license - for non-commercial use only

Gurobi 8.1.1 (win64, Python) logging started 10/28/19 15:50:05

Academic license - for non-commercial use only

Gurobi 8.1.1 (win64, Python) logging started 10/28/19 15:58:22

Academic license - for non-commercial use only

Gurobi 8.1.1 (win64, Python) logging started 10/28/19 16:08:45

Academic license - for non-commercial use only

Gurobi 8.1.1 (win64, Python) logging started 10/28/19 16:25:48

Academic license - for non-commercial use only

Gurobi 8.1.1 (win64, Python) logging started 10/28/19 16:29:35

Academic license - for non-commercial use only

Gurobi 8.1.1 (win64, Python) logging started 10/28/19 16:46:33

Academic license - for non-commercial use only

Gurobi 8.1.1 (win64, Python) logging started 10/28/19 17:03:44

Academic license - for non-commercial use only

Gurobi 8.1.1 (win64, Python) logging started 10/29/19 09:12:39

Academic license - for non-commercial use only

Gurobi 8.1.1 (win64, Python) logging started 10/29/19 10:18:55

Academic license - for non-commercial use only

Gurobi 8.1.1 (win64, Python) logging started 10/29/19 10:28:10

Academic license - for non-commercial use only

Gurobi 8.1.1 (win64, Python) logging started 10/29/19 10:37:33

Academic license - for non-commercial use only

Gurobi 8.1.1 (win64, Python) logging started 10/29/19 10:47:14

Academic license - for non-commercial use only

Gurobi 8.1.1 (win64, Python) logging started 10/29/19 10:53:40

Academic license - for non-commercial use only

Gurobi 8.1.1 (win64, Python) logging started 10/29/19 11:01:19

Academic license - for non-commercial use only

Gurobi 8.1.1 (win64, Python) logging started 10/29/19 11:07:12

Academic license - for non-commercial use only

Gurobi 8.1.1 (win64, Python) logging started 10/29/19 11:46:53

Academic license - for non-commercial use only

Gurobi 8.1.1 (win64, Python) logging started 10/29/19 11:52:05

Academic license - for non-commercial use only

Gurobi 8.1.1 (win64, Python) logging started 10/29/19 12:09:09

Academic license - for non-commercial use only

Gurobi 8.1.1 (win64, Python) logging started 10/29/19 12:40:53

Academic license - for non-commercial use only

Gurobi 8.1.1 (win64, Python) logging started 10/29/19 12:45:28

Academic license - for non-commercial use only

Gurobi 8.1.1 (win64, Python) logging started 10/29/19 14:16:09

Academic license - for non-commercial use only

Gurobi 8.1.1 (win64, Python) logging started 10/29/19 14:22:27

Academic license - for non-commercial use only

Gurobi 8.1.1 (win64, Python) logging started 10/29/19 14:29:11

Academic license - for non-commercial use only

Gurobi 8.1.1 (win64, Python) logging started 10/29/19 14:32:05

Academic license - for non-commercial use only

Gurobi 8.1.1 (win64, Python) logging started 10/29/19 14:39:11

Academic license - for non-commercial use only

Gurobi 8.1.1 (win64, Python) logging started 10/29/19 14:43:05

Academic license - for non-commercial use only

Gurobi 8.1.1 (win64, Python) logging started 10/29/19 14:46:21

Academic license - for non-commercial use only

Gurobi 8.1.1 (win64, Python) logging started 10/29/19 15:16:57

Academic license - for non-commercial use only

Gurobi 8.1.1 (win64, Python) logging started 10/29/19 15:35:00

Academic license - for non-commercial use only

Gurobi 8.1.1 (win64, Python) logging started 10/29/19 16:02:08

Academic license - for non-commercial use only

Gurobi 8.1.1 (win64, Python) logging started 10/29/19 16:24:04

Academic license - for non-commercial use only

Gurobi 8.1.1 (win64, Python) logging started 10/29/19 17:31:03

Academic license - for non-commercial use only

Gurobi 8.1.1 (win64, Python) logging started 10/29/19 17:34:23

Academic license - for non-commercial use only

Gurobi 8.1.1 (win64, Python) logging started 10/29/19 17:41:44

Academic license - for non-commercial use only

Gurobi 8.1.1 (win64, Python) logging started 11/04/19 09:33:13

Academic license - for non-commercial use only

Gurobi 8.1.1 (win64, Python) logging started 11/04/19 10:22:03

Academic license - for non-commercial use only

Gurobi 8.1.1 (win64, Python) logging started 11/04/19 10:35:42

Academic license - for non-commercial use only

Gurobi 8.1.1 (win64, Python) logging started 11/04/19 10:49:50

Academic license - for non-commercial use only

Gurobi 8.1.1 (win64, Python) logging started 11/04/19 11:53:06

Academic license - for non-commercial use only

Gurobi 8.1.1 (win64, Python) logging started 11/04/19 12:00:33

Academic license - for non-commercial use only

Gurobi 8.1.1 (win64, Python) logging started 11/04/19 12:11:07

Academic license - for non-commercial use only

Gurobi 8.1.1 (win64, Python) logging started 11/04/19 12:27:30

Academic license - for non-commercial use only

Gurobi 8.1.1 (win64, Python) logging started 11/04/19 12:32:41

Academic license - for non-commercial use only

Gurobi 8.1.1 (win64, Python) logging started 11/04/19 14:06:59

Academic license - for non-commercial use only

Gurobi 8.1.1 (win64, Python) logging started 11/04/19 14:14:21

Academic license - for non-commercial use only

Gurobi 8.1.1 (win64, Python) logging started 11/04/19 14:18:39

Academic license - for non-commercial use only

Gurobi 8.1.1 (win64, Python) logging started 11/04/19 14:32:03

Academic license - for non-commercial use only

Gurobi 8.1.1 (win64, Python) logging started 11/04/19 15:26:40

Academic license - for non-commercial use only

Gurobi 8.1.1 (win64, Python) logging started 11/04/19 15:30:47

Academic license - for non-commercial use only

Gurobi 8.1.1 (win64, Python) logging started 11/04/19 15:35:10

Academic license - for non-commercial use only

Gurobi 8.1.1 (win64, Python) logging started 11/04/19 15:37:54

Academic license - for non-commercial use only

Gurobi 8.1.1 (win64, Python) logging started 11/04/19 15:44:05

Academic license - for non-commercial use only

Gurobi 8.1.1 (win64, Python) logging started 11/04/19 15:47:11

Academic license - for non-commercial use only

Gurobi 8.1.1 (win64, Python) logging started 11/04/19 15:49:59

Academic license - for non-commercial use only

Gurobi 8.1.1 (win64, Python) logging started 11/04/19 16:01:14

Academic license - for non-commercial use only

Gurobi 8.1.1 (win64, Python) logging started 11/04/19 16:10:20

Academic license - for non-commercial use only

Gurobi 8.1.1 (win64, Python) logging started 11/04/19 16:13:03

Academic license - for non-commercial use only

Gurobi 8.1.1 (win64, Python) logging started 11/04/19 16:21:34

Academic license - for non-commercial use only

Gurobi 8.1.1 (win64, Python) logging started 11/04/19 16:53:44

Academic license - for non-commercial use only

Gurobi 8.1.1 (win64, Python) logging started 11/04/19 17:07:25

Academic license - for non-commercial use only

Gurobi 8.1.1 (win64, Python) logging started 11/04/19 17:26:38

Academic license - for non-commercial use only

Gurobi 8.1.1 (win64, Python) logging started 11/04/19 17:38:04

Academic license - for non-commercial use only

Gurobi 8.1.1 (win64, Python) logging started 11/05/19 09:21:07

Academic license - for non-commercial use only

Gurobi 8.1.1 (win64, Python) logging started 11/05/19 09:25:58

Academic license - for non-commercial use only

Gurobi 8.1.1 (win64, Python) logging started 11/05/19 09:32:50

Academic license - for non-commercial use only

Gurobi 8.1.1 (win64, Python) logging started 11/05/19 10:03:38

Academic license - for non-commercial use only

Gurobi 8.1.1 (win64, Python) logging started 11/05/19 10:15:32

Academic license - for non-commercial use only

Gurobi 8.1.1 (win64, Python) logging started 11/05/19 10:23:58

Academic license - for non-commercial use only

Gurobi 8.1.1 (win64, Python) logging started 11/05/19 10:31:21

Academic license - for non-commercial use only

Gurobi 8.1.1 (win64, Python) logging started 11/05/19 10:36:03

Academic license - for non-commercial use only

Gurobi 8.1.1 (win64, Python) logging started 11/05/19 10:39:11

Academic license - for non-commercial use only

Gurobi 8.1.1 (win64, Python) logging started 11/05/19 10:43:48

Academic license - for non-commercial use only

Gurobi 8.1.1 (win64, Python) logging started 11/05/19 10:50:02

Academic license - for non-commercial use only

Gurobi 8.1.1 (win64, Python) logging started 11/05/19 10:56:20

Academic license - for non-commercial use only

Gurobi 8.1.1 (win64, Python) logging started 11/05/19 11:00:30

Academic license - for non-commercial use only

Gurobi 8.1.1 (win64, Python) logging started 11/05/19 11:07:07

Academic license - for non-commercial use only

Gurobi 8.1.1 (win64, Python) logging started 11/05/19 11:12:16

Academic license - for non-commercial use only

Gurobi 8.1.1 (win64, Python) logging started 11/05/19 11:19:15

Academic license - for non-commercial use only

Gurobi 8.1.1 (win64, Python) logging started 11/05/19 11:43:31

Academic license - for non-commercial use only

Gurobi 8.1.1 (win64, Python) logging started 11/05/19 11:56:01

Academic license - for non-commercial use only

Gurobi 8.1.1 (win64, Python) logging started 11/05/19 12:26:07

Academic license - for non-commercial use only

Gurobi 8.1.1 (win64, Python) logging started 11/05/19 12:33:19

Academic license - for non-commercial use only

Gurobi 8.1.1 (win64, Python) logging started 11/05/19 12:39:45

Academic license - for non-commercial use only

Gurobi 8.1.1 (win64, Python) logging started 11/05/19 13:17:26

Academic license - for non-commercial use only

Gurobi 8.1.1 (win64, Python) logging started 11/05/19 13:26:50

Academic license - for non-commercial use only

Gurobi 8.1.1 (win64, Python) logging started 11/05/19 13:37:03

Academic license - for non-commercial use only

Gurobi 8.1.1 (win64, Python) logging started 11/05/19 13:40:39

Academic license - for non-commercial use only

Gurobi 8.1.1 (win64, Python) logging started 11/05/19 16:10:30

Academic license - for non-commercial use only

Gurobi 8.1.1 (win64, Python) logging started 11/05/19 16:17:17

Academic license - for non-commercial use only

Gurobi 8.1.1 (win64, Python) logging started 11/05/19 16:21:24

Academic license - for non-commercial use only

Gurobi 8.1.1 (win64, Python) logging started 11/05/19 16:26:14

Academic license - for non-commercial use only

Gurobi 8.1.1 (win64, Python) logging started 11/05/19 16:29:27

Academic license - for non-commercial use only

Gurobi 8.1.1 (win64, Python) logging started 11/05/19 16:35:23

Academic license - for non-commercial use only

Gurobi 8.1.1 (win64, Python) logging started 11/05/19 16:47:13

Academic license - for non-commercial use only

Gurobi 8.1.1 (win64, Python) logging started 11/05/19 16:56:04

Academic license - for non-commercial use only

Gurobi 8.1.1 (win64, Python) logging started 11/05/19 17:04:16

Academic license - for non-commercial use only
